Optimal - objective value 20.00000000
      2 x_1_5                  1                       0
     17 x_2_11                 1                       0
     22 x_3_0                  1                       0
     40 x_4_6                  1                       0
     50 x_5_0                  1                       0
     73 x_6_16                 1                       0
     83 x_7_20                 1                       7
